20	5
0	9	9	1	2	5	6	7	8	4	3
1	2	20	15
2	2	11	16
3	4	18	19	14	20
4	3	17	11	20
5	3	17	11	20
6	4	12	10	14	13
7	4	12	14	11	10
8	4	10	17	16	12
9	2	20	12
10	4	20	15	18	19
11	1	21
12	1	21
13	1	21
14	1	21
15	1	21
16	1	21
17	1	21
18	1	21
19	1	21
20	1	21
21	0
0	0	0	0	0	0	0
1	5	4	4	2	3	1
2	8	3	1	5	1	3
3	5	1	2	1	2	1
4	3	3	1	1	5	1
5	4	2	5	3	1	5
6	5	4	1	2	3	5
7	1	3	4	4	3	4
8	2	2	4	3	5	3
9	8	1	5	4	5	1
10	4	2	2	5	1	1
11	2	2	3	1	4	4
12	6	1	5	1	4	3
13	7	1	3	1	1	3
14	10	3	1	4	2	2
15	10	5	2	5	4	4
16	4	1	2	1	1	3
17	4	4	4	2	2	4
18	10	1	3	1	4	3
19	8	5	4	2	2	2
20	3	5	4	2	5	4
21	0	0	0	0	0	0
10	11	10	11	10
